\ENCODING=ISO-8859-1
\Problem name: TSP

Minimize
 obj1: 0 x(1,_1)#0 + 4726.65314995717 x(1,_2)#1 + 1204.34920185136 x(1,_3)#2
       + 4726.65314995717 x(2,_1)#3 + 0 x(2,_2)#4 + 3587.42316990901 x(2,_3)#5
       + 1204.34920185136 x(3,_1)#6 + 3587.42316990901 x(3,_2)#7 + 0 x(3,_3)#8
Subject To
 in_degree_x(1)#0:     x(2,_1)#3 + x(3,_1)#6  = 1
 in_degree_x(2)#1:     x(1,_2)#1 + x(3,_2)#7  = 1
 in_degree_x(3)#2:     x(1,_3)#2 + x(2,_3)#5  = 1
 out_degree_x(1)#3:    x(1,_2)#1 + x(1,_3)#2  = 1
 out_degree_x(2)#4:    x(2,_1)#3 + x(2,_3)#5  = 1
 out_degree_x(3)#5:    x(3,_1)#6 + x(3,_2)#7  = 1
 _exists_y(1,_2)#6:    - 2 x(1,_2)#1 + y(1,_2)#9 <= 0
 _exists_y(1,_3)#7:    - 2 x(1,_3)#2 + y(1,_3)#10 <= 0
 _exists_y(2,_1)#8:    - 2 x(2,_1)#3 + y(2,_1)#11 <= 0
 _exists_y(2,_3)#9:    - 2 x(2,_3)#5 + y(2,_3)#12 <= 0
 _exists_y(3,_1)#10:   - 2 x(3,_1)#6 + y(3,_1)#13 <= 0
 _exists_y(3,_2)#11:   - 2 x(3,_2)#7 + y(3,_2)#14 <= 0
 flow_out_y(1)#12:     y(1,_2)#9 + y(1,_3)#10  = 2
 flowIn_flowOut(2)#13: y(1,_2)#9 - y(2,_1)#11 - y(2,_3)#12 + y(3,_2)#14  = 1
 flowIn_flowOut(3)#14: y(1,_3)#10 + y(2,_3)#12 - y(3,_1)#13 - y(3,_2)#14  = 1
Bounds
 0 <= x(1,_1)#0 <= 1
 0 <= x(1,_2)#1 <= 1
 0 <= x(1,_3)#2 <= 1
 0 <= x(2,_1)#3 <= 1
 0 <= x(2,_2)#4 <= 1
 0 <= x(2,_3)#5 <= 1
 0 <= x(3,_1)#6 <= 1
 0 <= x(3,_2)#7 <= 1
 0 <= x(3,_3)#8 <= 1
      y(1,_2)#9 >= 0
      y(1,_3)#10 >= 0
      y(2,_1)#11 = 0
      y(2,_3)#12 >= 0
      y(3,_1)#13 = 0
      y(3,_2)#14 >= 0
Binaries
 x(1,_1)#0  x(1,_2)#1  x(1,_3)#2  x(2,_1)#3  x(2,_2)#4  x(2,_3)#5  x(3,_1)#6 
 x(3,_2)#7  x(3,_3)#8 
Generals
 y(1,_2)#9  y(1,_3)#10  y(2,_1)#11  y(2,_3)#12  y(3,_1)#13  y(3,_2)#14 
End
